nNurses = 134;
nHours = 25;
minHours = 9;
maxHours = 20;
maxConsec = 12;
maxPresence = 20;
demand = [20, 18, 19, 16, 12, 15, 20, 19, 18, 19, 18, 22, 19, 17, 13, 12, 15, 20, 18, 15, 16, 11, 13, 8, 7];
